p edge 140 560
e 1 42
e 1 49
e 1 68
e 1 132
e 2 18
e 2 60
e 2 97
e 2 123
e 3 41
e 3 55
e 3 73
e 3 102
e 4 87
e 4 97
e 4 125
e 4 130
e 5 4
e 5 90
e 5 97
e 5 139
e 6 2
e 6 7
e 6 16
e 6 26
e 7 6
e 7 121
e 7 131
e 7 140
e 8 2
e 8 12
e 8 107
e 8 112
e 9 41
e 9 42
e 9 59
e 9 93
e 10 15
e 10 67
e 10 104
e 10 106
e 11 12
e 11 19
e 11 100
e 11 112
e 12 13
e 12 48
e 12 51
e 12 83
e 13 27
e 13 33
e 13 57
e 13 120
e 14 25
e 14 82
e 14 85
e 14 110
e 15 32
e 15 89
e 15 120
e 15 126
e 16 17
e 16 119
e 16 132
e 16 140
e 17 15
e 17 22
e 17 112
e 17 138
e 18 1
e 18 14
e 18 34
e 18 125
e 19 21
e 19 59
e 19 89
e 19 137
e 20 50
e 20 50
e 20 104
e 20 137
e 21 14
e 21 40
e 21 108
e 21 122
e 22 25
e 22 29
e 22 30
e 22 80
e 23 21
e 23 75
e 23 81
e 23 120
e 24 19
e 24 36
e 24 118
e 24 130
e 25 3
e 25 60
e 25 62
e 25 121
e 26 46
e 26 62
e 26 67
e 26 138
e 27 31
e 27 37
e 27 88
e 27 139
e 28 21
e 28 31
e 28 33
e 28 114
e 29 17
e 29 43
e 29 102
e 29 110
e 30 20
e 30 85
e 30 98
e 30 106
e 31 45
e 31 58
e 31 69
e 31 78
e 32 62
e 32 69
e 32 107
e 32 130
e 33 41
e 33 60
e 33 99
e 33 102
e 34 31
e 34 72
e 34 95
e 34 122
e 35 27
e 35 107
e 35 123
e 35 133
e 36 19
e 36 66
e 36 84
e 36 104
e 37 26
e 37 39
e 37 113
e 37 120
e 38 3
e 38 12
e 38 126
e 38 139
e 39 29
e 39 34
e 39 95
e 39 120
e 40 7
e 40 114
e 40 134
e 40 139
e 41 7
e 41 43
e 41 74
e 41 104
e 42 7
e 42 53
e 42 117
e 42 124
e 43 20
e 43 72
e 43 108
e 43 116
e 44 10
e 44 15
e 44 102
e 44 140
e 45 20
e 45 36
e 45 69
e 45 96
e 46 71
e 46 85
e 46 109
e 46 119
e 47 43
e 47 65
e 47 110
e 47 110
e 48 46
e 48 120
e 48 124
e 48 134
e 49 22
e 49 91
e 49 100
e 49 127
e 50 27
e 50 97
e 50 110
e 50 137
e 51 13
e 51 18
e 51 72
e 51 112
e 52 8
e 52 57
e 52 118
e 52 125
e 53 16
e 53 62
e 53 85
e 53 91
e 54 58
e 54 71
e 54 84
e 54 87
e 55 26
e 55 102
e 55 118
e 55 120
e 56 28
e 56 96
e 56 96
e 56 121
e 57 38
e 57 77
e 57 78
e 57 139
e 58 56
e 58 59
e 58 71
e 58 110
e 59 18
e 59 38
e 59 92
e 59 129
e 60 126
e 60 130
e 60 133
e 60 137
e 61 57
e 61 101
e 61 107
e 61 115
e 62 41
e 62 63
e 62 78
e 62 131
e 63 10
e 63 34
e 63 56
e 63 77
e 64 15
e 64 71
e 64 86
e 64 104
e 65 14
e 65 32
e 65 128
e 65 129
e 66 84
e 66 120
e 66 131
e 66 135
e 67 56
e 67 94
e 67 99
e 67 132
e 68 20
e 68 21
e 68 36
e 68 126
e 69 24
e 69 50
e 69 106
e 69 136
e 70 32
e 70 35
e 70 69
e 70 94
e 71 10
e 71 16
e 71 70
e 71 92
e 72 4
e 72 12
e 72 30
e 72 75
e 73 9
e 73 33
e 73 72
e 73 119
e 74 10
e 74 24
e 74 98
e 74 104
e 75 68
e 75 85
e 75 127
e 75 129
e 76 64
e 76 103
e 76 119
e 76 127
e 77 36
e 77 83
e 77 128
e 77 131
e 78 26
e 78 69
e 78 117
e 78 124
e 79 12
e 79 74
e 79 101
e 79 130
e 80 25
e 80 29
e 80 29
e 80 55
e 81 5
e 81 77
e 81 98
e 81 128
e 82 3
e 82 72
e 82 88
e 82 139
e 83 46
e 83 74
e 83 129
e 83 133
e 84 13
e 84 31
e 84 96
e 84 108
e 85 11
e 85 23
e 85 96
e 85 127
e 86 35
e 86 50
e 86 74
e 86 138
e 87 23
e 87 53
e 87 78
e 87 92
e 88 18
e 88 29
e 88 111
e 88 139
e 89 52
e 89 64
e 89 67
e 89 119
e 90 7
e 90 11
e 90 57
e 90 118
e 91 54
e 91 93
e 91 113
e 91 117
e 92 1
e 92 14
e 92 80
e 92 127
e 93 6
e 93 8
e 93 82
e 93 116
e 94 28
e 94 96
e 94 113
e 94 140
e 95 22
e 95 61
e 95 68
e 95 70
e 96 1
e 96 19
e 96 57
e 96 123
e 97 35
e 97 102
e 97 110
e 97 118
e 98 42
e 98 53
e 98 70
e 98 109
e 99 15
e 99 43
e 99 47
e 99 82
e 100 61
e 100 92
e 100 115
e 100 133
e 101 37
e 101 53
e 101 67
e 101 111
e 102 18
e 102 36
e 102 36
e 102 66
e 103 22
e 103 23
e 103 49
e 103 112
e 104 22
e 104 54
e 104 98
e 104 139
e 105 38
e 105 43
e 105 80
e 105 93
e 106 8
e 106 74
e 106 83
e 106 105
e 107 44
e 107 55
e 107 118
e 107 138
e 108 12
e 108 30
e 108 35
e 108 39
e 109 59
e 109 76
e 109 94
e 109 121
e 110 68
e 110 118
e 110 121
e 110 125
e 111 7
e 111 24
e 111 51
e 111 95
e 112 3
e 112 36
e 112 47
e 112 87
e 113 7
e 113 51
e 113 90
e 113 134
e 114 14
e 114 16
e 114 17
e 114 117
e 115 14
e 115 17
e 115 49
e 115 97
e 116 49
e 116 88
e 116 104
e 116 119
e 117 52
e 117 108
e 117 113
e 117 115
e 118 12
e 118 22
e 118 105
e 118 131
e 119 4
e 119 45
e 119 67
e 119 115
e 120 6
e 120 54
e 120 56
e 120 128
e 121 72
e 121 73
e 121 95
e 121 106
e 122 56
e 122 65
e 122 97
e 122 108
e 123 19
e 123 70
e 123 79
e 123 114
e 124 3
e 124 62
e 124 98
e 124 135
e 125 18
e 125 21
e 125 48
e 125 99
e 126 86
e 126 133
e 126 134
e 126 139
e 127 41
e 127 59
e 127 104
e 127 106
e 128 28
e 128 82
e 128 101
e 128 108
e 129 46
e 129 49
e 129 54
e 129 85
e 130 35
e 130 51
e 130 84
e 130 102
e 131 36
e 131 38
e 131 79
e 131 100
e 132 6
e 132 15
e 132 32
e 132 60
e 133 11
e 133 25
e 133 97
e 133 112
e 134 19
e 134 54
e 134 71
e 134 136
e 135 39
e 135 49
e 135 71
e 135 138
e 136 37
e 136 49
e 136 64
e 136 108
e 137 25
e 137 26
e 137 54
e 137 116
e 138 3
e 138 112
e 138 122
e 138 134
e 139 39
e 139 63
e 139 65
e 139 87
e 140 12
e 140 21
e 140 76
e 140 97
